Results/archive/athey_nov_2/Athey_N_100/N_100_p_0.9/data_train_enc_0.9_5_FlowOPT_d_0_t_600_branching_limit_100.0_pred_1.lp
\ Model FlowOPT
\ LP format - for model browsing. Use MPS format to capture full model detail.
Maximize
  0.8540393201616426 z[0,1] + 323.6840825867563 z[1,1]
   + 1.085928524457222 z[2,1] + 0.9082574274791316 z[3,1]
   + 0.4260778779307614 z[4,1] + 0.6323051805109058 z[5,1]
   + 1.751450223730684 z[6,1] + 1.212491162891825 z[7,1]
   + 0.4027453418972682 z[8,1] + 0.7220318593185977 z[10,1]
   + 0.9702988654695038 z[11,1] + 0.8681968052460087 z[12,1]
   + 0.9667586584038163 z[13,1] + 0.680318084625599 z[14,1]
   + 7.519740742093921 z[15,1] + 0.6935522080072043 z[16,1]
   + 0.4772691831551504 z[17,1] + 1.750343900443219 z[18,1]
   + 0.7993337219227316 z[19,1] + 0.7342899443133826 z[20,1]
   + 0.6081937470219693 z[21,1] + 0.991485477176275 z[22,1]
   + 1.702535304388968 z[23,1] + 1.25796116709818 z[24,1]
   + 0.5083871108216166 z[25,1] + 0.5079752195687783 z[26,1]
   + 0.8497290740627895 z[27,1] + 0.6115598705822742 z[28,1]
   + 0.5580197224650209 z[29,1] + 0.6297306823444911 z[30,1]
   + 0.8533394231572562 z[31,1] + 0.4585161834192059 z[32,1]
   + 3.440707185962411 z[33,1] + 0.5388596569976036 z[34,1]
   + 1.125484705180551 z[35,1] + 0.6560500792366859 z[36,1]
   + 0.7490675501481138 z[37,1] + 0.9902493291107655 z[38,1]
   + 0.5353847147902016 z[39,1] + 1.021999052943794 z[40,1]
   + 0.6422494902238427 z[41,1] + 0.9406913552279834 z[42,1]
   + 0.8330789504746712 z[43,1] + 0.5723710928009601 z[44,1]
   + 0.8407747071999667 z[45,1] + 1.234799372502021 z[46,1]
   + 0.8426751847949504 z[47,1] + 0.7730936763528149 z[48,1]
   + 2.627109706477283 z[49,1] + 1.436775802567193 z[50,1]
   + 1.047550584836308 z[51,1] + 0.9819787891323791 z[52,1]
   + 1.581851222721594 z[53,1] + 0.5581866709083135 z[54,1]
   + 0.5143507130774723 z[55,1] + 0.7527104785346633 z[56,1]
   + 0.4085710610146148 z[57,1] + 0.7005556458342375 z[58,1]
   + 0.9564551246790066 z[59,1] + 0.4341319514472411 z[60,1]
   + 1.504745297915501 z[61,1] + 6.168689020918171 z[62,1]
   + 0.835865998537618 z[63,1] + 0.8453641712677549 z[64,1]
   + 0.4359009699065112 z[65,1] + 0.5944430777022414 z[66,1]
   + 1.433996369097456 z[67,1] + 0.600603162312354 z[68,1]
   + 0.8095595983229904 z[69,1] + 1.243068296283825 z[70,1]
   + 1.233512403233939 z[71,1] + 1.871485673485022 z[72,1]
   + 0.6787464818167834 z[73,1] + 1.461765820834182 z[74,1]
   + 0.6434625546382849 z[75,1] + 0.7264574269222509 z[76,1]
   + 0.5511033120277019 z[77,1] + 1.066235064082946 z[78,1]
   + 0.7737562125851942 z[79,1] + 1.21140077696885 z[80,1]
   + 0.8685488404926478 z[81,1] + 0.687908151529514 z[82,1]
   + 0.2218133025581934 z[83,1] + 1.11857168694974 z[84,1]
   + 0.6930665621886749 z[85,1] + 0.7607154353293488 z[86,1]
   + 0.9359416424232266 z[87,1] + 0.6611969552471406 z[88,1]
   + 0.6631640856634123 z[89,1] + 0.732514516701784 z[90,1]
   + 0.8594506481214872 z[91,1] + 0.9281191792965499 z[92,1]
   + 1.544087736819827 z[93,1] + 0.610566228023815 z[94,1]
   + 0.7177157647151894 z[95,1] + 0.8887475214185749 z[96,1]
   + 0.7739959239793207 z[97,1] + 13.17166166589209 z[98,1]
   + 0.780962624954981 z[99,1]
Subject To
 R0: p[1] = 1
 R1: - w[1,0] + zeta[0,1] <= 0
 R2: - w[1,1] + zeta[1,1] <= 0
 R3: - w[1,0] + zeta[2,1] <= 0
 R4: - w[1,1] + zeta[3,1] <= 0
 R5: - w[1,0] + zeta[4,1] <= 0
 R6: - w[1,0] + zeta[5,1] <= 0
 R7: - w[1,0] + zeta[6,1] <= 0
 R8: - w[1,0] + zeta[7,1] <= 0
 R9: - w[1,0] + zeta[8,1] <= 0
 R10: - w[1,0] + zeta[9,1] <= 0
 R11: - w[1,1] + zeta[10,1] <= 0
 R12: - w[1,0] + zeta[11,1] <= 0
 R13: - w[1,0] + zeta[12,1] <= 0
 R14: - w[1,1] + zeta[13,1] <= 0
 R15: - w[1,1] + zeta[14,1] <= 0
 R16: - w[1,0] + zeta[15,1] <= 0
 R17: - w[1,1] + zeta[16,1] <= 0
 R18: - w[1,0] + zeta[17,1] <= 0
 R19: - w[1,1] + zeta[18,1] <= 0
 R20: - w[1,0] + zeta[19,1] <= 0
 R21: - w[1,0] + zeta[20,1] <= 0
 R22: - w[1,1] + zeta[21,1] <= 0
 R23: - w[1,0] + zeta[22,1] <= 0
 R24: - w[1,1] + zeta[23,1] <= 0
 R25: - w[1,1] + zeta[24,1] <= 0
 R26: - w[1,0] + zeta[25,1] <= 0
 R27: - w[1,0] + zeta[26,1] <= 0
 R28: - w[1,0] + zeta[27,1] <= 0
 R29: - w[1,0] + zeta[28,1] <= 0
 R30: - w[1,0] + zeta[29,1] <= 0
 R31: - w[1,1] + zeta[30,1] <= 0
 R32: - w[1,1] + zeta[31,1] <= 0
 R33: - w[1,0] + zeta[32,1] <= 0
 R34: - w[1,0] + zeta[33,1] <= 0
 R35: - w[1,0] + zeta[34,1] <= 0
 R36: - w[1,0] + zeta[35,1] <= 0
 R37: - w[1,1] + zeta[36,1] <= 0
 R38: - w[1,1] + zeta[37,1] <= 0
 R39: - w[1,1] + zeta[38,1] <= 0
 R40: - w[1,0] + zeta[39,1] <= 0
 R41: - w[1,1] + zeta[40,1] <= 0
 R42: - w[1,0] + zeta[41,1] <= 0
 R43: - w[1,0] + zeta[42,1] <= 0
 R44: - w[1,1] + zeta[43,1] <= 0
 R45: - w[1,0] + zeta[44,1] <= 0
 R46: - w[1,1] + zeta[45,1] <= 0
 R47: - w[1,1] + zeta[46,1] <= 0
 R48: - w[1,0] + zeta[47,1] <= 0
 R49: - w[1,0] + zeta[48,1] <= 0
 R50: - w[1,1] + zeta[49,1] <= 0
 R51: - w[1,0] + zeta[50,1] <= 0
 R52: - w[1,1] + zeta[51,1] <= 0
 R53: - w[1,0] + zeta[52,1] <= 0
 R54: - w[1,0] + zeta[53,1] <= 0
 R55: - w[1,0] + zeta[54,1] <= 0
 R56: - w[1,0] + zeta[55,1] <= 0
 R57: - w[1,0] + zeta[56,1] <= 0
 R58: - w[1,0] + zeta[57,1] <= 0
 R59: - w[1,0] + zeta[58,1] <= 0
 R60: - w[1,1] + zeta[59,1] <= 0
 R61: - w[1,0] + zeta[60,1] <= 0
 R62: - w[1,1] + zeta[61,1] <= 0
 R63: - w[1,1] + zeta[62,1] <= 0
 R64: - w[1,1] + zeta[63,1] <= 0
 R65: - w[1,0] + zeta[64,1] <= 0
 R66: - w[1,0] + zeta[65,1] <= 0
 R67: - w[1,0] + zeta[66,1] <= 0
 R68: - w[1,1] + zeta[67,1] <= 0
 R69: - w[1,0] + zeta[68,1] <= 0
 R70: - w[1,1] + zeta[69,1] <= 0
 R71: - w[1,0] + zeta[70,1] <= 0
 R72: - w[1,1] + zeta[71,1] <= 0
 R73: - w[1,1] + zeta[72,1] <= 0
 R74: - w[1,0] + zeta[73,1] <= 0
 R75: - w[1,0] + zeta[74,1] <= 0
 R76: - w[1,1] + zeta[75,1] <= 0
 R77: - w[1,1] + zeta[76,1] <= 0
 R78: - w[1,0] + zeta[77,1] <= 0
 R79: - w[1,0] + zeta[78,1] <= 0
 R80: - w[1,1] + zeta[79,1] <= 0
 R81: - w[1,0] + zeta[80,1] <= 0
 R82: - w[1,0] + zeta[81,1] <= 0
 R83: - w[1,0] + zeta[82,1] <= 0
 R84: - w[1,0] + zeta[83,1] <= 0
 R85: - w[1,0] + zeta[84,1] <= 0
 R86: - w[1,1] + zeta[85,1] <= 0
 R87: - w[1,1] + zeta[86,1] <= 0
 R88: - w[1,1] + zeta[87,1] <= 0
 R89: - w[1,0] + zeta[88,1] <= 0
 R90: - w[1,0] + zeta[89,1] <= 0
 R91: - w[1,1] + zeta[90,1] <= 0
 R92: - w[1,1] + zeta[91,1] <= 0
 R93: - w[1,1] + zeta[92,1] <= 0
 R94: - w[1,1] + zeta[93,1] <= 0
 R95: - w[1,0] + zeta[94,1] <= 0
 R96: - w[1,0] + zeta[95,1] <= 0
 R97: - w[1,0] + zeta[96,1] <= 0
 R98: - w[1,1] + zeta[97,1] <= 0
 R99: - w[1,1] + zeta[98,1] <= 0
 R100: - w[1,1] + zeta[99,1] <= 0
 R101: - p[1] + w[1,0] + w[1,1] = 0
 R102: zeta[0,1] - z[0,1] = 0
 R103: zeta[1,1] - z[1,1] = 0
 R104: zeta[2,1] - z[2,1] = 0
 R105: zeta[3,1] - z[3,1] = 0
 R106: zeta[4,1] - z[4,1] = 0
 R107: zeta[5,1] - z[5,1] = 0
 R108: zeta[6,1] - z[6,1] = 0
 R109: zeta[7,1] - z[7,1] = 0
 R110: zeta[8,1] - z[8,1] = 0
 R111: zeta[9,1] - z[9,1] = 0
 R112: zeta[10,1] - z[10,1] = 0
 R113: zeta[11,1] - z[11,1] = 0
 R114: zeta[12,1] - z[12,1] = 0
 R115: zeta[13,1] - z[13,1] = 0
 R116: zeta[14,1] - z[14,1] = 0
 R117: zeta[15,1] - z[15,1] = 0
 R118: zeta[16,1] - z[16,1] = 0
 R119: zeta[17,1] - z[17,1] = 0
 R120: zeta[18,1] - z[18,1] = 0
 R121: zeta[19,1] - z[19,1] = 0
 R122: zeta[20,1] - z[20,1] = 0
 R123: zeta[21,1] - z[21,1] = 0
 R124: zeta[22,1] - z[22,1] = 0
 R125: zeta[23,1] - z[23,1] = 0
 R126: zeta[24,1] - z[24,1] = 0
 R127: zeta[25,1] - z[25,1] = 0
 R128: zeta[26,1] - z[26,1] = 0
 R129: zeta[27,1] - z[27,1] = 0
 R130: zeta[28,1] - z[28,1] = 0
 R131: zeta[29,1] - z[29,1] = 0
 R132: zeta[30,1] - z[30,1] = 0
 R133: zeta[31,1] - z[31,1] = 0
 R134: zeta[32,1] - z[32,1] = 0
 R135: zeta[33,1] - z[33,1] = 0
 R136: zeta[34,1] - z[34,1] = 0
 R137: zeta[35,1] - z[35,1] = 0
 R138: zeta[36,1] - z[36,1] = 0
 R139: zeta[37,1] - z[37,1] = 0
 R140: zeta[38,1] - z[38,1] = 0
 R141: zeta[39,1] - z[39,1] = 0
 R142: zeta[40,1] - z[40,1] = 0
 R143: zeta[41,1] - z[41,1] = 0
 R144: zeta[42,1] - z[42,1] = 0
 R145: zeta[43,1] - z[43,1] = 0
 R146: zeta[44,1] - z[44,1] = 0
 R147: zeta[45,1] - z[45,1] = 0
 R148: zeta[46,1] - z[46,1] = 0
 R149: zeta[47,1] - z[47,1] = 0
 R150: zeta[48,1] - z[48,1] = 0
 R151: zeta[49,1] - z[49,1] = 0
 R152: zeta[50,1] - z[50,1] = 0
 R153: zeta[51,1] - z[51,1] = 0
 R154: zeta[52,1] - z[52,1] = 0
 R155: zeta[53,1] - z[53,1] = 0
 R156: zeta[54,1] - z[54,1] = 0
 R157: zeta[55,1] - z[55,1] = 0
 R158: zeta[56,1] - z[56,1] = 0
 R159: zeta[57,1] - z[57,1] = 0
 R160: zeta[58,1] - z[58,1] = 0
 R161: zeta[59,1] - z[59,1] = 0
 R162: zeta[60,1] - z[60,1] = 0
 R163: zeta[61,1] - z[61,1] = 0
 R164: zeta[62,1] - z[62,1] = 0
 R165: zeta[63,1] - z[63,1] = 0
 R166: zeta[64,1] - z[64,1] = 0
 R167: zeta[65,1] - z[65,1] = 0
 R168: zeta[66,1] - z[66,1] = 0
 R169: zeta[67,1] - z[67,1] = 0
 R170: zeta[68,1] - z[68,1] = 0
 R171: zeta[69,1] - z[69,1] = 0
 R172: zeta[70,1] - z[70,1] = 0
 R173: zeta[71,1] - z[71,1] = 0
 R174: zeta[72,1] - z[72,1] = 0
 R175: zeta[73,1] - z[73,1] = 0
 R176: zeta[74,1] - z[74,1] = 0
 R177: zeta[75,1] - z[75,1] = 0
 R178: zeta[76,1] - z[76,1] = 0
 R179: zeta[77,1] - z[77,1] = 0
 R180: zeta[78,1] - z[78,1] = 0
 R181: zeta[79,1] - z[79,1] = 0
 R182: zeta[80,1] - z[80,1] = 0
 R183: zeta[81,1] - z[81,1] = 0
 R184: zeta[82,1] - z[82,1] = 0
 R185: zeta[83,1] - z[83,1] = 0
 R186: zeta[84,1] - z[84,1] = 0
 R187: zeta[85,1] - z[85,1] = 0
 R188: zeta[86,1] - z[86,1] = 0
 R189: zeta[87,1] - z[87,1] = 0
 R190: zeta[88,1] - z[88,1] = 0
 R191: zeta[89,1] - z[89,1] = 0
 R192: zeta[90,1] - z[90,1] = 0
 R193: zeta[91,1] - z[91,1] = 0
 R194: zeta[92,1] - z[92,1] = 0
 R195: zeta[93,1] - z[93,1] = 0
 R196: zeta[94,1] - z[94,1] = 0
 R197: zeta[95,1] - z[95,1] = 0
 R198: zeta[96,1] - z[96,1] = 0
 R199: zeta[97,1] - z[97,1] = 0
 R200: zeta[98,1] - z[98,1] = 0
 R201: zeta[99,1] - z[99,1] = 0
Bounds
Binaries
 p[1]
End
